c --- [ banner ] -------------------------------------------------------------
c 
c CaDiCaL Radically Simplified CDCL SAT Solver
c Copyright (c) 2016-2021 A. Biere, M. Fleury, N. Froleyks
c 
c Version 1.5.2 9c38a080b32c28d805e8e6ca21849856b0cda605
c g++ (Ubuntu 7.5.0-3ubuntu1~18.04) 7.5.0 -Wall -Wextra -O3 -DNDEBUG
c Wed Feb 16 23:15:36 EST 2022 Linux fac-vanhoeve01 5.4.0-99-generic x86_64
c 
c --- [ limit ] --------------------------------------------------------------
c 
c setting time limit to 600 seconds real time (due to '-t 600')
c setting conflict limit to 1000000000 conflicts (due to '1000000000')
c 
c --- [ parsing input ] ------------------------------------------------------
c 
c reading DIMACS file from 'ddfwcnfs/wap01a.col_41.cnf'
c opening file to read 'ddfwcnfs/wap01a.col_41.cnf'
c found 'p cnf 97088 4382234' header
c parsed 4382234 clauses in 2.64 seconds process time
c closing file 'ddfwcnfs/wap01a.col_41.cnf'
c after reading 70166206 bytes 66.9 MB
c 
c --- [ options ] ------------------------------------------------------------
c 
c all options are set to their default value
c 
c --- [ solving ] ------------------------------------------------------------
c 
c time measured in process time since initialization
c 
c  seconds   reductions  redundant   irredundant
c          MB    restarts       trail        variables
c           level   conflicts       glue          remaining
c 
c *  2.64 386  0 0   0    0    0  0% 0 4380553 95407 98%
c {  2.69 389  0 0   0    0    0  0% 0 4380553 95407 98%
c -  3.50 389 40 1   0  300  184  9% 24 4380553 95407 98%
c }  3.61 389 32 1   2 1000  694  7% 24 4380553 95407 98%
c [  3.61 389  0 1   2 1000  694  0% 0 4380553 95407 98%
c O  3.61 389 51 1   2 1002  696  5% 38 4380553 95407 98%
c -  5.79 490 44 2   2 1885 1113  4% 40 4380553 95407 98%
c ]  5.87 490 46 2   3 3001 1882  4% 42 4380553 95407 98%
c {  5.87 490 32 2   3 3001 1882  7% 24 4380553 95407 98%
c F  5.88 490 32 2   3 3003 1884  7% 24 4380553 95407 98%
c -  7.45 490 28 3   4 4263 1837  5% 22 4380553 95407 98%
c # 11.17 488 26 3   6 6005 2946  4% 21 4380553 95407 98%
c } 11.24 488 29 3 240 7001 3243  4% 22 4380553 95407 98%
c [ 11.24 488 46 3 240 7001 3243  4% 42 4380553 95407 98%
c - 12.82 488 47 4 241 7433 2286  4% 41 4380553 95407 98%
c I 13.07 488 54 4 242 10006 4201  4% 42 4380553 95407 98%
c s 14.89 488 3845 4 243 11043 4507 12% 50 4380553 95407 98%
c e 24.48 488 3845 4 243 11043 2036 12% 50 4108136 90493 93%
c s 25.95 502 3845 4 243 11043 2036 12% 50 4108136 90493 93%
c - 30.11 507 5041 5 244 11396 2208 16% 52 4108136 90493 93%
c 
c  seconds     reductions   redundant    irredundant
c          MB      restarts        trail         variables
c            level     conflicts       glue           remaining
c 
c ] 30.81 507 8639 5 245 15003 5090 36% 72 4108136 90493 93%
c { 30.82 507 29 5 245 15003 5090  4% 22 4108136 90493 93%
c B 34.49 507 38 5 247 15008 5095  4% 22 4108136 90493 93%
c - 36.07 508 45 6 530 16100 3808  5% 25 4108136 90493 93%
c W 37.84 508 42 6 1781 21009 5305  6% 31 4108136 90493 93%
c - 39.56 522 58 7 1930 21588 2759  7% 32 4108136 90493 93%
c - 41.56 522 51 8 3514 27861 2578  7% 34 4108136 90493 93%
c F 41.58 522 51 8 3549 28010 2631  7% 34 4108136 90493 93%
c } 45.45 522 48 8 3551 31005 4720  7% 34 4108136 90493 93%
c [ 45.45 522 8639 8 3551 31005 4720 36% 72 4108136 90493 93%
c - 47.24 523 6121 9 3553 34918 5769 28% 64 4108136 90493 93%
c B 47.34 523 5648 9 3554 36012 6421 26% 63 4108136 90493 93%
c - 50.04 525 4400 10 3558 42760 7592 28% 76 4108136 90493 93%
c W 52.10 525 4094 10 3558 45013 9443 30% 77 4108136 90493 93%
c - 58.16 525 3370 11 3559 51386 8588 31% 74 4108136 90493 93%
c O 58.84 525 3086 11 3560 55015 11664 34% 79 4108136 90493 93%
c - 60.98 526 2571 12 3565 60795 10029 30% 77 4108136 90493 93%
c ] 61.26 526 2412 12 3566 63005 11747 29% 76 4108136 90493 93%
c { 61.26 526 48 12 3566 63005 11747  7% 34 4108136 90493 93%
c B 61.56 526 47 12 4070 66016 12892  7% 34 4108136 90493 93%
c 
c  seconds   reductions     redundant    irredundant
c          MB     restarts         trail         variables
c           level      conflicts       glue           remaining
c 
c - 63.55 524 50 13 4895 70989 9360  7% 35 4108136 90493 93%
c W 69.76 524 55 13 5428 78018 14730  8% 36 4108136 90493 93%
c - 71.92 524 59 14 6112 81966 10116  8% 38 4108136 90493 93%
c # 72.85 524 62 14 8384 91019 14034  8% 43 4108136 90493 93%
c - 74.60 524 60 15 8391 93728 8521  8% 43 4108136 90493 93%
c B 79.19 524 57 15 8403 105020 16148  7% 42 4108136 90493 93%
c - 80.84 524 63 16 8418 106274 11098  8% 42 4108136 90493 93%
c - 83.66 525 80 17 8543 119604 12998  9% 42 4108136 90493 93%
c W 86.45 525 80 17 8543 120022 13306  9% 42 4108136 90493 93%
c } 87.29 525 76 17 8546 127006 17850  8% 42 4108136 90493 93%
c [ 87.29 525 2412 17 8546 127006 17850 29% 76 4108136 90493 93%
c - 89.92 525 2015 18 8549 133718 13095 26% 70 4108136 90493 93%
c w 94.86 525 2015 18 8549 133718 13095 26% 70 4108136 90493 93%
c B 95.70 525 2198 18 8551 136023 14831 25% 70 4108136 90493 93%
c - 103.67 526 1706 19 8554 148618 14700 24% 68 4108136 90493 93%
c W 107.80 526 1580 19 8555 153025 18058 24% 68 4108136 90493 93%
c - 112.57 528 5166 20 8555 164300 15676 31% 65 4108136 90493 93%
c I 114.37 528 6437 20 8558 171027 20736 35% 65 4108136 90493 93%
c - 125.37 529 5678 21 8563 180765 17381 33% 71 4108136 90493 93%
c B 128.87 529 4971 21 8569 190029 25042 31% 75 4108136 90493 93%
c 
c  seconds      reductions       redundant    irredundant
c           MB       restarts           trail         variables
c             level       conflicts         glue           remaining
c 
c - 134.12 531 5387 22 8570 198016 18572 33% 78 4108136 90493 93%
c W 143.01 531 4616 22 8577 210031 28187 33% 80 4108136 90493 93%
c - 147.08 530 4270 23 8580 216051 19719 32% 81 4108136 90493 93%
c O 154.42 530 3516 23 8585 231032 29879 28% 79 4108136 90493 93%
c - 156.88 527 3349 24 8586 234870 18252 27% 77 4108136 90493 93%
c B 159.27 527 2680 24 8587 253034 29850 23% 71 4108136 90493 93%
c - 161.65 526 3178 25 8587 254474 17643 24% 72 4108136 90493 93%
c ] 161.75 526 3347 25 8587 255006 18055 24% 72 4108136 90493 93%
c { 161.75 526 76 25 8587 255006 18055  8% 42 4108136 90493 93%
c - 166.71 526 76 26 9360 274860 17930  9% 42 4108136 90493 93%
c F 171.48 526 75 26 9360 276037 18652  9% 42 4108136 90493 93%
c - 176.97 526 68 27 9405 296031 20083  9% 42 4108136 90493 93%
c B 177.73 526 67 27 9415 300039 23036  9% 42 4108136 90493 93%
c - 182.44 527 127 28 9433 317985 22766  8% 42 4108136 90493 93%
c s 182.71 527 127 28 9433 317985 22581  8% 42 4108136 90493 93%
c w 186.72 527 127 28 9433 317985 22567  8% 42 4108136 90493 93%
c W 193.59 527 136 28 9469 325040 28091  8% 41 4108136 90493 93%
c - 202.45 527 121 29 9490 340723 23049  8% 41 4108136 90493 93%
c # 203.92 527 112 29 9535 351042 30420  8% 41 4108136 90493 93%
c - 207.63 527 103 30 9550 364247 22543  8% 41 4108136 90493 93%
c 
c  seconds    reductions       redundant    irredundant
c           MB     restarts           trail         variables
c            level      conflicts         glue           remaining
c 
c B 209.70 527 94 30 9559 378043 32055  8% 41 4108136 90493 93%
c - 213.27 527 89 31 9599 388553 22494  8% 41 4108136 90493 93%
c W 227.91 527 81 31 9636 406044 33534  8% 41 4108136 90493 93%
c - 231.20 527 78 32 9653 413643 22379  8% 41 4108136 90493 93%
c F 235.38 527 71 32 9766 435045 36845  8% 41 4108136 90493 93%
c - 237.75 527 71 33 9766 439519 24292  8% 41 4108136 90493 93%
c B 245.79 527 65 33 9783 465047 41890  8% 39 4108136 90493 93%
c - 248.32 527 66 34 9826 466180 25121  8% 39 4108136 90493 93%
c - 253.91 529 66 35 9897 493624 28290  8% 40 4108136 90493 93%
c W 261.99 529 66 35 9907 496051 30207  8% 40 4108136 90493 93%
c } 264.03 529 72 35 13720 511009 34881  8% 43 4108136 90493 93%
c [ 264.03 529 3347 35 13720 511009 34881 24% 72 4108136 90493 93%
c - 267.62 528 2953 36 13720 521851 22279 22% 72 4108136 90493 93%
c W 282.11 528 3742 36 13720 528053 27233 23% 77 4108136 90493 93%
c - 291.87 537 3615 37 13727 550865 29782 26% 88 4108136 90493 93%
c s 292.23 537 3615 37 13727 550865 28521 26% 88 4108136 90493 93%
c w 297.53 537 3615 37 13727 550865 28520 26% 88 4108136 90493 93%
c I 300.80 537 3272 37 13734 561056 36718 25% 86 4108136 90493 93%
c - 307.05 534 2771 38 13741 580660 31770 23% 85 4108136 90493 93%
c B 310.19 534 2396 38 13749 595062 41499 21% 87 4108136 90493 93%
c 
c  seconds      reductions        redundant    irredundant
c           MB        restarts           trail         variables
c             level        conflicts         glue           remaining
c 
c - 321.20 533 2092 39 13751 611247 30754 19% 82 4108136 90493 93%
c W 333.50 533 1739 39 13757 630066 45743 17% 77 4108136 90493 93%
c - 337.45 531 1540 40 13764 642611 32868 16% 73 4108136 90493 93%
c O 341.36 531 1231 40 13773 666068 50363 14% 67 4108136 90493 93%
c - 344.22 531 1130 41 13779 674758 34773 13% 65 4108136 90493 93%
c B 351.46 531 860 41 13782 703070 52730 11% 60 4108136 90493 93%
c - 355.26 533 1132 42 13783 707689 31226 13% 68 4108136 90493 93%
c W 385.28 533 989 42 13784 741072 60676 18% 99 4108136 90493 93%
c - 387.20 556 986 43 13784 741405 38095 18% 99 4108136 90493 93%
c - 401.71 538 768 44 13784 775906 36450 19% 98 4108136 90493 93%
c I 403.60 538 747 44 13784 780077 40055 19% 99 4108136 90493 93%
c - 419.44 548 10007 45 13789 811190 40330 28% 118 4108136 90493 93%
c B 421.63 548 9187 45 13794 820081 47818 28% 116 4108136 90493 93%
c - 428.24 539 8496 46 13806 847259 39226 30% 110 4108136 90493 93%
c s 428.69 539 8496 46 13806 847259 38166 30% 110 4108136 90493 93%
c w 433.34 539 8496 46 13806 847259 38146 30% 110 4108136 90493 93%
c W 450.66 539 7417 46 13813 861084 48003 27% 106 4108136 90493 93%
c - 456.38 536 6290 47 13815 884111 40590 25% 102 4108136 90493 93%
c O 459.38 536 5224 47 13825 903088 55466 22% 94 4108136 90493 93%
c - 464.23 532 4349 48 13831 921749 39308 20% 87 4108136 90493 93%
c 
c  seconds      reductions        redundant    irredundant
c           MB        restarts           trail         variables
c             level        conflicts         glue           remaining
c 
c B 468.60 532 3428 48 13845 946090 56760 17% 78 4108136 90493 93%
c - 478.09 535 4973 49 13846 960171 40665 23% 84 4108136 90493 93%
c W 498.17 535 3842 49 13847 990091 63938 24% 83 4108136 90493 93%
c - 503.42 539 4313 50 13847 999378 41866 25% 86 4108136 90493 93%
c ] 510.16 539 4257 50 13860 1023009 60989 27% 89 4108136 90493 93%
c { 510.16 539 72 50 13860 1023009 60989  8% 43 4108136 90493 93%
c # 511.91 539 80 50 14141 1035092 70096  8% 43 4108136 90493 93%
c - 514.29 538 79 51 14145 1039368 43244  8% 43 4108136 90493 93%
c - 526.79 531 67 52 14189 1080141 39784  8% 42 4108136 90493 93%
c B 526.94 531 67 52 14189 1081093 40483  8% 42 4108136 90493 93%
c - 535.40 532 70 53 14433 1121697 43508  8% 41 4108136 90493 93%
c W 552.05 532 71 53 14433 1128095 48767  8% 41 4108136 90493 93%
c - 566.45 533 72 54 14461 1164038 47889  8% 41 4108136 90493 93%
c F 569.07 533 73 54 14491 1176098 57786  8% 41 4108136 90493 93%
c - 575.38 532 65 55 14496 1207164 46292  7% 40 4108136 90493 93%
c s 576.19 532 65 55 14496 1207164 42732  7% 40 4108136 90493 93%
c w 582.52 532 65 55 14496 1207164 42720  7% 40 4108136 90493 93%
c B 585.49 532 61 55 14498 1225099 55289  7% 39 4108136 90493 93%
c - 591.79 532 68 56 14861 1251073 47923  7% 39 4108136 90493 93%
c } 599.91 532 65 56 14918 1265407 56449  7% 39 4108136 90493 93%
c 
c  seconds    reductions         redundant    irredundant
c           MB      restarts            trail         variables
c            level        conflicts         glue           remaining
c 
c ? 599.91 532 65 56 14918 1265407 56449  7% 39 4108136 90493 93%
c 
c --- [ result ] -------------------------------------------------------------
c 
c UNKNOWN
c 
c --- [ run-time profiling ] -------------------------------------------------
c 
c process time taken by individual solving procedures
c (percentage relative to process time for solving)
c 
c       461.35   77.24% search
c       221.46   37.08% stable
c       135.91   22.76% simplify
c       135.17   22.63% unstable
c       104.68   17.53% walk
c        42.88    7.18% ternary
c        21.06    3.53% vivify
c        16.52    2.77% probe
c         7.35    1.23% elim
c         5.65    0.95% subsume
c         2.64    0.44% parse
c         0.04    0.01% lucky
c   =================================
c       597.27   99.56% solve
c 
c last line shows process time for solving
c (percentage relative to total process time)
c 
c --- [ statistics ] ---------------------------------------------------------
c 
c chronological:            222852        17.61 %  of conflicts
c conflicts:               1265407      2118.66    per second
c decisions:               3168919      5305.70    per second
c eliminated:                 4914         5.06 %  of all variables
c fixed:                      1681         1.73 %  of all variables
c learned:                 1252283        98.96 %  per conflict
c learned_lits:          185184968       100.00 %  learned literals
c minimized:                     0         0.00 %  learned literals
c shrunken:               74481119        40.22 %  learned literals
c minishrunken:            6420181         3.47 %  learned literals
c propagations:          419160619         0.70 M  per second
c reduced:                  863579        68.25 %  per conflict
c rephased:                     49     25824.63    interval
c restarts:                  14918        84.82    interval
c stabilizing:                   5        53.90 %  of conflicts
c subsumed:                 329739         2.88 %  of all clauses
c strengthened:              17198         0.15 %  of all clauses
c vivified:                     78         0.00 %  of all clauses
c walked:                       15     84360.47    interval
c weakened:                 365924         3.70    average size
c 
c seconds are measured in process time for solving
c 
c --- [ resources ] ----------------------------------------------------------
c 
c total process time since initialization:       599.91    seconds
c total real time since initialization:          600.00    seconds
c maximum resident set size of process:          678.79    MB
c 
c --- [ shutting down ] ------------------------------------------------------
c 
c exit 0
